Maximize

1.00000000 p_1 + 0.67058052 p_2 + 0.55309938 p_3 + 0.26526730 p_4 + 0.12791079 p_5 + 0.06362742 p_6 + 0.03155133 p_7 + 0.01541489 p_8 + 0.00734667 p_9 + 0.00347655 p_10

Subject To

5.5 p_1 + 7 p_2 + 6.5 p_3 + 7.25 p_4 + 3.25 p_5 + 5.25 p_6 + 4.5 p_7 + 4.75 p_8 + 8.5 p_9 + 5 p_10 <= 23

Binaries

p_1
p_2
p_3
p_4
p_5
p_6
p_7
p_8
p_9
p_10

End